
/*
11 nodes network	
*/

	
param N := 11;
param M := 20;

set EM := 
0 5
0 8
0 9
0 10
1 2
1 3
1 4
1 7
2 1
2 3
2 5
2 8
3 1
3 2
3 4
3 5
3 6
4 1
4 3
4 8
4 7
4 10
5 2
5 3
5 6
5 8
5 0
6 3
6 5
6 7
6 8
6 9
7 1
7 4
7 6
7 9
7 10
8 2
8 5
8 6
8 9
8 0
8 4
9 6
9 7
9 8
9 10
9 0
10 0
10 4
10 7
10 9
;

end;

